NAME : higgs-002-integer.-39298925.tour
COMMENT : Length = -39298925
COMMENT : Found by LKH [Keld Helsgaun] Sun Jul  4 22:07:23 2021
TYPE : TOUR
DIMENSION : 28
TOUR_SECTION
1
10
6
18
24
23
25
27
28
4
22
26
7
9
15
17
19
21
2
13
11
5
8
12
3
16
20
14
-1
EOF
